p cnf 10 42
 8 2 -6 0
 4 7 -2 0
 5 10 8 0
 -8 10 2 0
 2 -9 4 0
 -2 5 -7 0
 -1 -6 2 0
 6 10 -7 0
 5 2 7 0
 -9 5 6 0
 -9 6 8 0
 -7 6 -8 0
 1 10 7 0
 6 -8 1 0
 -8 -2 7 0
 4 8 6 0
 -5 4 8 0
 -3 -9 -7 0
 1 -4 6 0
 -10 4 3 0
 6 9 -3 0
 -5 -2 -3 0
 -5 -2 4 0
 8 6 1 0
 9 6 7 0
 6 -3 -2 0
 -9 -10 -7 0
 3 5 -6 0
 -10 -4 -6 0
 3 -9 -1 0
 8 -6 -1 0
 1 4 8 0
 1 -3 4 0
 -6 -3 -7 0
 -5 1 -6 0
 6 7 5 0
 -2 -3 4 0
 -8 4 -5 0
 -3 -8 -7 0
 -4 9 -10 0
 -4 2 8 0
 -3 -9 -8 0
c 1 a_1
c 2 a_2
c 3 a_3
c 4 a_4
c 5 a_5
c 6 a_6
c 7 a_7
c 8 a_8
c 9 a_9
c 10 a_10
